data/solutions/planning/wellformed/intermediate/weighting/wellformed_intermediate_instance85_gurobi.sol
Elapsed time: 7.77
Nodes explored: 3007
Nodes left: 1098
Relative gap: 0.003
Upper bound: 584572071.0
Lower bound: 584555817
C[0]=8920.0
C[1]=8920.0
C[2]=8920.0
C[3]=8920.0
C[4]=8920.0
C[5]=8920.0
C[6]=8920.0
C[7]=8920.0
C[8]=8920.0
C[9]=8920.0
C[10]=8918.0
C[11]=8918.0
C[12]=8918.0
C[13]=8918.0
C[14]=8917.0
C[15]=8917.0
y[0]=14
y[1]=6
y[2]=1
y[3]=8
y[4]=9
y[5]=3
y[6]=10
y[7]=2
y[8]=7
y[9]=13
y[10]=12
y[11]=1
y[12]=1
y[13]=2
y[14]=15
y[15]=2
y[16]=2
y[17]=1
y[18]=13
y[19]=2
y[20]=9
y[21]=13
y[22]=3
y[23]=13
y[24]=1
y[25]=8
y[26]=1
y[27]=7
y[28]=14
y[29]=1
y[30]=8
y[31]=15
y[32]=8
y[33]=14
y[34]=10
y[35]=0
y[36]=11
y[37]=10
y[38]=15
y[39]=6
y[40]=3
y[41]=6
y[42]=8
y[43]=5
y[44]=15
y[45]=13
y[46]=3
y[47]=8
y[48]=14
y[49]=10
y[50]=12
y[51]=6
y[52]=4
y[53]=7
y[54]=12
y[55]=5
y[56]=15
y[57]=12
y[58]=10
y[59]=6
y[60]=8
y[61]=7
y[62]=2
y[63]=8
y[64]=2
y[65]=13
y[66]=11
y[67]=5
y[68]=15
y[69]=4
y[70]=6
y[71]=12
y[72]=7
y[73]=0
y[74]=10
y[75]=5
y[76]=12
y[77]=9
y[78]=10
y[79]=12
y[80]=1
y[81]=6
y[82]=13
y[83]=8
y[84]=9
y[85]=14
y[86]=15
y[87]=9
y[88]=5
y[89]=1
y[90]=7
y[91]=14
y[92]=10
y[93]=11
y[94]=10
y[95]=10
y[96]=9
y[97]=4
y[98]=15
y[99]=3
y[100]=4
y[101]=8
y[102]=6
y[103]=8
y[104]=4
y[105]=9
y[106]=4
y[107]=3
y[108]=8
y[109]=5
y[110]=10
y[111]=3
y[112]=11
y[113]=6
y[114]=13
y[115]=1
y[116]=14
y[117]=1
y[118]=0
y[119]=12
y[120]=14
y[121]=4
y[122]=10
y[123]=4
y[124]=6
y[125]=15
y[126]=8
y[127]=14
y[128]=1
y[129]=2
y[130]=14
y[131]=3
y[132]=6
y[133]=0
y[134]=0
y[135]=9
y[136]=3
y[137]=5
y[138]=4
y[139]=3
y[140]=5
y[141]=6
y[142]=15
y[143]=9
y[144]=1
y[145]=0
y[146]=5
y[147]=13
y[148]=1
y[149]=1
y[150]=10
y[151]=13
y[152]=0
y[153]=5
y[154]=0
y[155]=6
y[156]=7
y[157]=3
y[158]=11
y[159]=0
y[160]=6
y[161]=9
y[162]=11
y[163]=12
y[164]=7
y[165]=0
y[166]=11
y[167]=4
y[168]=14
y[169]=5
y[170]=0
y[171]=11
y[172]=9
y[173]=3
y[174]=14
y[175]=11
y[176]=0
y[177]=7
y[178]=1
y[179]=0
y[180]=9
y[181]=8
y[182]=9
y[183]=0
y[184]=12
y[185]=2
y[186]=8
y[187]=9
y[188]=10
y[189]=3
y[190]=12
y[191]=1
y[192]=0
y[193]=0
y[194]=7
y[195]=6
y[196]=3
y[197]=6
y[198]=5
y[199]=10
y[200]=13
y[201]=11
y[202]=11
y[203]=4
y[204]=12
y[205]=7
y[206]=5
y[207]=9
y[208]=1
y[209]=9
y[210]=4
y[211]=12
y[212]=11
y[213]=13
y[214]=13
y[215]=0
y[216]=0
y[217]=5
y[218]=6
y[219]=3
y[220]=6
y[221]=13
y[222]=0
y[223]=9
y[224]=13
y[225]=1
y[226]=10
y[227]=0
y[228]=4
y[229]=9
y[230]=14
y[231]=13
y[232]=9
y[233]=7
y[234]=0
y[235]=5
y[236]=12
y[237]=4
y[238]=11
y[239]=14
y[240]=1
y[241]=2
y[242]=8
y[243]=9
y[244]=2
y[245]=8
y[246]=9
y[247]=11
y[248]=3
y[249]=0
y[250]=3
y[251]=4
y[252]=5
y[253]=12
y[254]=12
y[255]=7
y[256]=2
y[257]=13
y[258]=15
y[259]=14
y[260]=2
y[261]=15
y[262]=7
y[263]=4
y[264]=2
y[265]=12
y[266]=13
y[267]=1
y[268]=3
y[269]=10
y[270]=12
y[271]=10
y[272]=0
y[273]=3
y[274]=2
y[275]=14
y[276]=4
y[277]=15
y[278]=5
y[279]=13
y[280]=11
y[281]=5
y[282]=14
y[283]=9
y[284]=14
y[285]=9
y[286]=15
y[287]=13
y[288]=7
y[289]=0
y[290]=3
y[291]=11
y[292]=8
y[293]=11
y[294]=11
y[295]=2
y[296]=8
y[297]=1
y[298]=7
y[299]=0
